NAME          COPTPROB
OBJSENSE
  MIN
ROWS
 N  __OBJ___
 L  C158    
 L  C257    
 L  C528    
 L  C1496   
 L  C1994   
COLUMNS
    MARKER    'MARKER'                 'INTORG'
    x315      __OBJ___  -1
    x315      C257      1
    x315      C1496     1
    x398      __OBJ___  -1
    x398      C1496     1
    x398      C1994     1
    x876      __OBJ___  -1
    x876      C158      1
    x876      C528      1
    x960      __OBJ___  -1
    x960      C158      1
    x960      C1994     1
    x1090     __OBJ___  -1
    x1090     C257      1
    x1090     C528      1
    MARKER    'MARKER'                 'INTEND'
RHS
    RHS       __OBJ___  692
    RHS       C158      1
    RHS       C257      1
    RHS       C528      1
    RHS       C1496     1
    RHS       C1994     1
BOUNDS
 UP BOUND     x315      1
 UP BOUND     x398      1
 UP BOUND     x876      1
 UP BOUND     x960      1
 UP BOUND     x1090     1
ENDATA
